168,240
923,230
1161,406
1051,526
200,161
639,364
654,491
880,342
847,919
910,721
563,388
893,618
491,780
681,106
540,600
639,140
1020,160
787,352
1125,476
311,286
635,264
814,338
727,264
573,193
474,374
672,378
699,463
704,554
695,494
